Copyright (C) 2013-2015, Filipe Brandao
Build (method = -2)
  #dp: 30644
  Step-3' Graph: 302 vertices and 15512 arcs (0.07s)
  Step-4' Graph: 298 vertices and 15504 arcs (0.07s)
  #V4/#V3 = 0.99
  #A4/#A3 = 1.00
Ready! (0.07s)
Optimize a model with 478 rows, 15505 columns and 45923 nonzeros
Presolve removed 63 rows and 63 columns
Presolve time: 0.07s
Presolved: 415 rows, 15442 columns, 45624 nonzeros
Variable types: 0 continuous, 15442 integer (7759 binary)
Optimize a model with 415 rows, 15442 columns and 45624 nonzeros
Presolved: 415 rows, 15442 columns, 45624 nonzeros

Root barrier log...

Ordering time: 0.00s

Barrier statistics:
 AA' NZ     : 2.938e+04
 Factor NZ  : 5.455e+04 (roughly 7 MBytes of memory)
 Factor Ops : 9.481e+06 (less than 1 second per iteration)
 Threads    : 1

                  Objective                Residual
Iter       Primal          Dual         Primal    Dual     Compl     Time
   0   3.85323935e+04 -2.72692662e+05  3.65e+05 6.95e-02  1.21e+02     0s
   1   1.06875875e+04 -6.63908955e+04  4.40e+04 8.51e-02  1.59e+01     0s
   2   1.97492734e+03 -1.71918868e+04  3.89e+03 1.44e-15  1.76e+00     0s
   3   9.09740913e+02 -5.68619071e+03  5.41e+02 1.27e-03  3.45e-01     0s
   4   4.70785976e+02 -1.52939529e+03  9.37e+01 1.98e-04  8.40e-02     0s
   5   3.23853719e+02 -7.52558694e+02  3.64e+01 5.01e-05  4.12e-02     0s
   6   2.84469370e+02 -4.58246870e+02  2.52e+01 2.55e-06  2.78e-02     0s
   7   2.38014305e+02 -2.31745006e+02  1.56e+01 3.15e-15  1.71e-02     0s
   8   2.12030824e+02 -9.67292154e+01  1.14e+01 3.37e-15  1.12e-02     0s
   9   1.89784310e+02 -3.16854190e+01  8.36e+00 3.34e-15  7.95e-03     0s
  10   1.81048434e+02  1.42850113e-01  7.26e+00 3.99e-15  6.47e-03     0s
  11   1.58051980e+02  1.97344048e+01  4.73e+00 3.39e-15  4.85e-03     0s
  12   1.42048853e+02  5.85009202e+01  3.07e+00 3.44e-15  2.90e-03     0s
  13   1.36546448e+02  7.75624800e+01  2.46e+00 4.12e-15  2.04e-03     0s
  14   1.32661535e+02  8.58931291e+01  2.02e+00 4.20e-15  1.61e-03     0s
  15   1.28022429e+02  9.24354004e+01  1.49e+00 4.34e-15  1.21e-03     0s
  16   1.23015169e+02  9.90016468e+01  8.12e-01 4.57e-15  8.05e-04     0s
  17   1.20765534e+02  1.05326059e+02  3.73e-01 3.64e-15  5.09e-04     0s
  18   1.19728847e+02  1.09482046e+02  1.95e-01 3.44e-15  3.35e-04     0s
  19   1.19172879e+02  1.11963680e+02  1.11e-01 3.15e-15  2.35e-04     0s
  20   1.18756592e+02  1.14380928e+02  6.43e-02 3.22e-15  1.42e-04     0s
  21   1.18388443e+02  1.15869671e+02  2.40e-02 3.44e-15  8.17e-05     0s
  22   1.18245210e+02  1.16454057e+02  1.38e-02 3.19e-15  5.80e-05     0s
  23   1.18124966e+02  1.17054764e+02  7.10e-03 2.73e-15  3.46e-05     0s
  24   1.18083217e+02  1.17367353e+02  5.46e-03 3.34e-15  2.32e-05     0s
  25   1.18047014e+02  1.17486308e+02  4.00e-03 3.75e-15  1.82e-05     0s
  26   1.18028447e+02  1.17496648e+02  3.42e-03 3.98e-15  1.72e-05     0s
  27   1.18001786e+02  1.17637114e+02  2.52e-03 3.70e-15  1.18e-05     0s
  28   1.17958193e+02  1.17712116e+02  1.52e-03 3.80e-15  7.96e-06     0s
  29   1.17952875e+02  1.17751670e+02  1.39e-03 3.71e-15  6.51e-06     0s
  30   1.17932296e+02  1.17782188e+02  9.11e-04 3.33e-15  4.86e-06     0s
  31   1.17916435e+02  1.17835300e+02  6.66e-04 3.30e-15  2.63e-06     0s
  32   1.17898392e+02  1.17851479e+02  3.80e-04 3.11e-15  1.52e-06     0s
  33   1.17893471e+02  1.17868992e+02  2.98e-04 2.45e-15  7.93e-07     0s
  34   1.17886860e+02  1.17875795e+02  1.26e-04 2.89e-15  3.58e-07     0s
  35   1.17880372e+02  1.17878534e+02  1.66e-05 3.25e-15  5.95e-08     0s
  36   1.17879098e+02  1.17879090e+02  2.88e-08 2.82e-15  2.70e-10     0s
  37   1.17879093e+02  1.17879093e+02  1.36e-11 2.90e-15  5.51e-16     0s

Barrier solved model in 37 iterations and 0.27 seconds
Optimal objective 1.17879093e+02


Root relaxation: objective 1.178791e+02, 1850 iterations, 0.29 seconds

    Nodes    |    Current Node    |     Objective Bounds      |     Work
 Expl Unexpl |  Obj  Depth IntInf | Incumbent    BestBd   Gap | It/Node Time

     0     0  117.87909    0   79          -  117.87909     -      -    1s
H    0     0                     122.0000000  117.87909  3.38%     -    1s
H    0     0                     119.0000000  117.87909  0.94%     -    1s
H    0     0                     118.0000000  117.87909  0.10%     -    3s

Explored 0 nodes (8206 simplex iterations) in 3.61 seconds
Thread count was 1 (of 4 available processors)

Optimal solution found (tolerance 0.00e+00)
Best objective 1.180000000000e+02, best bound 1.180000000000e+02, gap 0.0%
Preprocessing time: 0.10 seconds
Gurobi run time: 3.61 seconds
Total run time: 3.71 seconds
Objective: 118
Solution:
1 x [i=1, i=117]
1 x [i=1, i=160, i=162]
1 x [i=2, i=160, i=161]
1 x [i=3, i=116]
1 x [i=4, i=115]
1 x [i=5, i=148, i=171]
1 x [i=5, i=149, i=170]
1 x [i=6, i=143, i=178]
1 x [i=6, i=144, i=176]
1 x [i=6, i=150, i=167]
1 x [i=6, i=151, i=166]
1 x [i=6, i=154, i=164]
1 x [i=7, i=114]
1 x [i=8, i=113]
1 x [i=9, i=111]
1 x [i=10, i=110]
1 x [i=11, i=146, i=167]
1 x [i=12, i=109]
1 x [i=12, i=140, i=175]
1 x [i=13, i=149, i=163]
2 x [i=14, i=108]
1 x [i=14, i=137, i=179]
1 x [i=14, i=142, i=171]
1 x [i=14, i=145, i=167]
1 x [i=15, i=107]
1 x [i=16, i=106]
1 x [i=17, i=104]
1 x [i=18, i=134]
1 x [i=18, i=136, i=173]
1 x [i=18, i=148, i=157]
1 x [i=18, i=150, i=153]
1 x [i=19, i=139, i=168]
1 x [i=19, i=145, i=160]
1 x [i=20, i=103]
1 x [i=21, i=102]
1 x [i=22, i=101]
1 x [i=23, i=99]
1 x [i=24, i=97]
1 x [i=24, i=98]
2 x [i=25, i=96]
2 x [i=26, i=94]
1 x [i=27, i=93]
1 x [i=27, i=125, i=177]
1 x [i=28, i=126, i=175]
1 x [i=29, i=92]
1 x [i=30, i=91]
1 x [i=31, i=90]
1 x [i=32, i=89]
1 x [i=32, i=90]
1 x [i=33, i=118, i=179]
1 x [i=33, i=119, i=178]
1 x [i=33, i=138, i=155]
1 x [i=34, i=88]
1 x [i=35, i=87]
1 x [i=36, i=86]
1 x [i=36, i=87]
1 x [i=36, i=116, i=180]
1 x [i=37, i=124, i=169]
1 x [i=38, i=84]
1 x [i=39, i=84]
1 x [i=40, i=83]
1 x [i=41, i=128, i=161]
1 x [i=42, i=81]
1 x [i=43, i=125, i=161]
1 x [i=43, i=128, i=158]
1 x [i=44, i=80]
1 x [i=44, i=120, i=165]
1 x [i=45, i=77]
1 x [i=46, i=76]
1 x [i=47, i=73]
1 x [i=48, i=72]
1 x [i=49, i=71]
1 x [i=50, i=119, i=157]
1 x [i=51, i=127, i=149]
1 x [i=52, i=69]
1 x [i=53, i=68]
2 x [i=54, i=66]
1 x [i=55, i=65]
1 x [i=56, i=64]
1 x [i=57, i=62]
1 x [i=57, i=94, i=177]
2 x [i=58, i=61]
1 x [i=58, i=98, i=172]
1 x [i=58, i=111, i=156]
1 x [i=59, i=60]
1 x [i=60, i=130, i=137]
1 x [i=63, i=114, i=149]
1 x [i=63, i=122, i=141]
1 x [i=66, i=104, i=156]
1 x [i=67, i=111, i=147]
1 x [i=67, i=116, i=143]
1 x [i=67, i=125, i=135]
1 x [i=69, i=100, i=159]
1 x [i=69, i=104, i=152]
1 x [i=70, i=85, i=174]
1 x [i=70, i=116, i=142]
1 x [i=70, i=121, i=136]
1 x [i=72, i=124, i=132]
1 x [i=72, i=126, i=130]
1 x [i=74, i=118, i=133]
1 x [i=75, i=116, i=136]
1 x [i=75, i=123, i=131]
1 x [i=76, i=82, i=170]
1 x [i=76, i=122, i=131]
3 x [i=77, i=122, i=129]
1 x [i=78, i=82, i=168]
1 x [i=78, i=114, i=136]
1 x [i=79, i=95, i=151]
1 x [i=99, i=105, i=125]
1 x [i=102, i=112, i=116]
1 x [i=103, i=106, i=121]
